1 0 1 0
0 0 2 0
3 0 1 8
0 1 0 1
2 0 2 1
5 0 1 13
2 1 3 6
1 1 2 8
2 2 5 10
4 0 2 13
5 1 3 16
5 2 5 19
1 2 4 13
3 1 0 13
0 2 1 16
4 1 1 22
4 2 4 25
3 2 2 22
3 3 3 27
3 4 4 30
1 3 5 28
2 3 0 18
2 4 1 27
2 5 4 38
5 3 0 28
0 3 3 30
0 4 5 38
5 4 4 45
1 4 0 38
1 5 3 48
4 3 5 41
0 5 4 49
4 4 0 48
5 5 2 49
3 5 5 45
4 5 3 52
